\ This file has been generated by DOcplex
\ ENCODING=ISO-8859-1
\Problem name: random_problem.lp

Minimize
 obj: 214 x0 + 107 x1 - 852 x2 - 426 x3 - 88 x4 - 44 x5 + 216 x6 + 108 x7 + [
      1104 x0^2 + 1104 x0*x1 + 976 x0*x2 + 488 x0*x3 + 416 x0*x4 + 208 x0*x5
      + 992 x0*x6 + 496 x0*x7 + 276 x1^2 + 488 x1*x2 + 244 x1*x3 + 208 x1*x4
      + 104 x1*x5 + 496 x1*x6 + 248 x1*x7 + 1320 x2^2 + 1320 x2*x3 + 208 x2*x4
      + 104 x2*x5 + 1360 x2*x6 + 680 x2*x7 + 330 x3^2 + 104 x3*x4 + 52 x3*x5
      + 680 x3*x6 + 340 x3*x7 + 472 x4^2 + 472 x4*x5 + 608 x4*x6 + 304 x4*x7
      + 118 x5^2 + 304 x5*x6 + 152 x5*x7 + 1144 x6^2 + 1144 x6*x7 + 286 x7^2 ]/2
Subject To
 c0: 2 x0 + x1 + 2 x2 + x3 + 2 x4 + x5 + 2 x6 + x7 = 3

Bounds
 0 <= x0 <= 1
 0 <= x1 <= 1
 0 <= x2 <= 1
 0 <= x3 <= 1
 0 <= x4 <= 1
 0 <= x5 <= 1
 0 <= x6 <= 1
 0 <= x7 <= 1

Binaries
 x0 x1 x2 x3 x4 x5 x6 x7
End
